372787.0
3325
0 1 2 3 4 5 6 7 9 10 12 13 14 15 16 19 20 22 25 26 27 29 30 31 32 34 35 37 38 39 40 41 45 47 48 51 52 53 54 55 56 58 59 60 62 63 65 66 67 70 71 72 73 74 75 76 77 80 82 83 84 85 86 88 89 90 91 92 93 95 98 100 102 103 105 107 108 109 110 111 114 115 116 117 118 119 120 121 122 123 124 125 127 129 132 133 134 135 136 138 139 140 141 142 148 151 152 153 154 155 156 158 159 160 161 164 165 167 168 170 171 173 174 175 176 178 179 181 182 183 186 188 189 191 192 193 197 198 199 